NAME CFLP
ROWS
 N  OBJ
 E  demand_1
 E  demand_2
 E  demand_3
 E  demand_4
 E  demand_5
 E  demand_6
 E  demand_7
 E  demand_8
 E  demand_9
 E  demand_10
 E  demand_11
 E  demand_12
 E  demand_13
 E  demand_14
 E  demand_15
 E  demand_16
 E  demand_17
 E  demand_18
 E  demand_19
 E  demand_20
 E  demand_21
 E  demand_22
 E  demand_23
 E  demand_24
 E  demand_25
 E  demand_26
 E  demand_27
 E  demand_28
 E  demand_29
 E  demand_30
 L  c_disjunction_1_diajunct_1
 L  c_disjunction_1_disjunct_2
 E  R32     
 L  c_disjunction_2_diajunct_1
 L  c_disjunction_2_disjunct_2
 E  R35     
 L  c_disjunction_3_diajunct_1
 L  c_disjunction_3_disjunct_2
 E  R38     
 L  c_disjunction_4_diajunct_1
 L  c_disjunction_4_disjunct_2
 E  R41     
 L  c_disjunction_5_diajunct_1
 L  c_disjunction_5_disjunct_2
 E  R44     
 L  c_disjunction_6_diajunct_1
 L  c_disjunction_6_disjunct_2
 E  R47     
 L  c_disjunction_7_diajunct_1
 L  c_disjunction_7_disjunct_2
 E  R50     
 L  c_disjunction_8_diajunct_1
 L  c_disjunction_8_disjunct_2
 E  R53     
 L  c_disjunction_9_diajunct_1
 L  c_disjunction_9_disjunct_2
 E  R56     
 L  c_disjunction_10_diajunct_1
 L  c_disjunction_10_disjunct_2
 E  R59     
 L  c_disjunction_11_diajunct_1
 L  c_disjunction_11_disjunct_2
 E  R62     
 L  c_disjunction_12_diajunct_1
 L  c_disjunction_12_disjunct_2
 E  R65     
 L  c_disjunction_13_diajunct_1
 L  c_disjunction_13_disjunct_2
 E  R68     
 L  c_disjunction_14_diajunct_1
 L  c_disjunction_14_disjunct_2
 E  R71     
 L  c_disjunction_15_diajunct_1
 L  c_disjunction_15_disjunct_2
 E  R74     
 L  c_disjunction_16_diajunct_1
 L  c_disjunction_16_disjunct_2
 E  R77     
 L  c_disjunction_17_diajunct_1
 L  c_disjunction_17_disjunct_2
 E  R80     
 L  c_disjunction_18_diajunct_1
 L  c_disjunction_18_disjunct_2
 E  R83     
 L  c_disjunction_19_diajunct_1
 L  c_disjunction_19_disjunct_2
 E  R86     
 L  c_disjunction_20_diajunct_1
 L  c_disjunction_20_disjunct_2
 E  R89     
 L  c_disjunction_21_diajunct_1
 L  c_disjunction_21_disjunct_2
 E  R92     
 L  c_disjunction_22_diajunct_1
 L  c_disjunction_22_disjunct_2
 E  R95     
 L  c_disjunction_23_diajunct_1
 L  c_disjunction_23_disjunct_2
 E  R98     
 L  c_disjunction_24_diajunct_1
 L  c_disjunction_24_disjunct_2
 E  R101    
 L  c_disjunction_25_diajunct_1
 L  c_disjunction_25_disjunct_2
 E  R104    
 L  c_disjunction_26_diajunct_1
 L  c_disjunction_26_disjunct_2
 E  R107    
 L  c_disjunction_27_diajunct_1
 L  c_disjunction_27_disjunct_2
 E  R110    
 L  c_disjunction_28_diajunct_1
 L  c_disjunction_28_disjunct_2
 E  R113    
 L  c_disjunction_29_diajunct_1
 L  c_disjunction_29_disjunct_2
 E  R116    
 L  c_disjunction_30_diajunct_1
 L  c_disjunction_30_disjunct_2
 E  R119    
COLUMNS
    MARKER    'MARKER'                 'INTORG'
    ind_disjunction_1_disjunct_1  OBJ       1171
    ind_disjunction_1_disjunct_1  c_disjunction_1_diajunct_1  -117
    ind_disjunction_1_disjunct_1  R32       1
    ind_disjunction_2_disjunct_1  OBJ       1171
    ind_disjunction_2_disjunct_1  c_disjunction_2_diajunct_1  -117
    ind_disjunction_2_disjunct_1  R35       1
    ind_disjunction_3_disjunct_1  OBJ       1171
    ind_disjunction_3_disjunct_1  c_disjunction_3_diajunct_1  -117
    ind_disjunction_3_disjunct_1  R38       1
    ind_disjunction_4_disjunct_1  OBJ       1171
    ind_disjunction_4_disjunct_1  c_disjunction_4_diajunct_1  -117
    ind_disjunction_4_disjunct_1  R41       1
    ind_disjunction_5_disjunct_1  OBJ       1171
    ind_disjunction_5_disjunct_1  c_disjunction_5_diajunct_1  -117
    ind_disjunction_5_disjunct_1  R44       1
    ind_disjunction_6_disjunct_1  OBJ       1171
    ind_disjunction_6_disjunct_1  c_disjunction_6_diajunct_1  -117
    ind_disjunction_6_disjunct_1  R47       1
    ind_disjunction_7_disjunct_1  OBJ       1171
    ind_disjunction_7_disjunct_1  c_disjunction_7_diajunct_1  -117
    ind_disjunction_7_disjunct_1  R50       1
    ind_disjunction_8_disjunct_1  OBJ       1171
    ind_disjunction_8_disjunct_1  c_disjunction_8_diajunct_1  -117
    ind_disjunction_8_disjunct_1  R53       1
    ind_disjunction_9_disjunct_1  OBJ       1171
    ind_disjunction_9_disjunct_1  c_disjunction_9_diajunct_1  -117
    ind_disjunction_9_disjunct_1  R56       1
    ind_disjunction_10_disjunct_1  OBJ       1171
    ind_disjunction_10_disjunct_1  c_disjunction_10_diajunct_1  -117
    ind_disjunction_10_disjunct_1  R59       1
    ind_disjunction_11_disjunct_1  OBJ       1171
    ind_disjunction_11_disjunct_1  c_disjunction_11_diajunct_1  -117
    ind_disjunction_11_disjunct_1  R62       1
    ind_disjunction_12_disjunct_1  OBJ       1171
    ind_disjunction_12_disjunct_1  c_disjunction_12_diajunct_1  -117
    ind_disjunction_12_disjunct_1  R65       1
    ind_disjunction_13_disjunct_1  OBJ       1171
    ind_disjunction_13_disjunct_1  c_disjunction_13_diajunct_1  -117
    ind_disjunction_13_disjunct_1  R68       1
    ind_disjunction_14_disjunct_1  OBJ       1171
    ind_disjunction_14_disjunct_1  c_disjunction_14_diajunct_1  -117
    ind_disjunction_14_disjunct_1  R71       1
    ind_disjunction_15_disjunct_1  OBJ       1171
    ind_disjunction_15_disjunct_1  c_disjunction_15_diajunct_1  -117
    ind_disjunction_15_disjunct_1  R74       1
    ind_disjunction_16_disjunct_1  OBJ       1171
    ind_disjunction_16_disjunct_1  c_disjunction_16_diajunct_1  -117
    ind_disjunction_16_disjunct_1  R77       1
    ind_disjunction_17_disjunct_1  OBJ       1171
    ind_disjunction_17_disjunct_1  c_disjunction_17_diajunct_1  -117
    ind_disjunction_17_disjunct_1  R80       1
    ind_disjunction_18_disjunct_1  OBJ       1171
    ind_disjunction_18_disjunct_1  c_disjunction_18_diajunct_1  -117
    ind_disjunction_18_disjunct_1  R83       1
    ind_disjunction_19_disjunct_1  OBJ       1171
    ind_disjunction_19_disjunct_1  c_disjunction_19_diajunct_1  -117
    ind_disjunction_19_disjunct_1  R86       1
    ind_disjunction_20_disjunct_1  OBJ       1171
    ind_disjunction_20_disjunct_1  c_disjunction_20_diajunct_1  -117
    ind_disjunction_20_disjunct_1  R89       1
    ind_disjunction_21_disjunct_1  OBJ       1171
    ind_disjunction_21_disjunct_1  c_disjunction_21_diajunct_1  -117
    ind_disjunction_21_disjunct_1  R92       1
    ind_disjunction_22_disjunct_1  OBJ       1171
    ind_disjunction_22_disjunct_1  c_disjunction_22_diajunct_1  -117
    ind_disjunction_22_disjunct_1  R95       1
    ind_disjunction_23_disjunct_1  OBJ       1171
    ind_disjunction_23_disjunct_1  c_disjunction_23_diajunct_1  -117
    ind_disjunction_23_disjunct_1  R98       1
    ind_disjunction_24_disjunct_1  OBJ       1171
    ind_disjunction_24_disjunct_1  c_disjunction_24_diajunct_1  -117
    ind_disjunction_24_disjunct_1  R101      1
    ind_disjunction_25_disjunct_1  OBJ       1171
    ind_disjunction_25_disjunct_1  c_disjunction_25_diajunct_1  -117
    ind_disjunction_25_disjunct_1  R104      1
    ind_disjunction_26_disjunct_1  OBJ       1171
    ind_disjunction_26_disjunct_1  c_disjunction_26_diajunct_1  -117
    ind_disjunction_26_disjunct_1  R107      1
    ind_disjunction_27_disjunct_1  OBJ       1171
    ind_disjunction_27_disjunct_1  c_disjunction_27_diajunct_1  -117
    ind_disjunction_27_disjunct_1  R110      1
    ind_disjunction_28_disjunct_1  OBJ       1171
    ind_disjunction_28_disjunct_1  c_disjunction_28_diajunct_1  -117
    ind_disjunction_28_disjunct_1  R113      1
    ind_disjunction_29_disjunct_1  OBJ       1171
    ind_disjunction_29_disjunct_1  c_disjunction_29_diajunct_1  -117
    ind_disjunction_29_disjunct_1  R116      1
    ind_disjunction_30_disjunct_1  OBJ       1171
    ind_disjunction_30_disjunct_1  c_disjunction_30_diajunct_1  -117
    ind_disjunction_30_disjunct_1  R119      1
    ind_disjunction_1_disjunct_2  c_disjunction_1_disjunct_2  3
    ind_disjunction_1_disjunct_2  R32       1
    ind_disjunction_2_disjunct_2  c_disjunction_2_disjunct_2  3
    ind_disjunction_2_disjunct_2  R35       1
    ind_disjunction_3_disjunct_2  c_disjunction_3_disjunct_2  2
    ind_disjunction_3_disjunct_2  R38       1
    ind_disjunction_4_disjunct_2  c_disjunction_4_disjunct_2  3
    ind_disjunction_4_disjunct_2  R41       1
    ind_disjunction_5_disjunct_2  c_disjunction_5_disjunct_2  4
    ind_disjunction_5_disjunct_2  R44       1
    ind_disjunction_6_disjunct_2  c_disjunction_6_disjunct_2  2
    ind_disjunction_6_disjunct_2  R47       1
    ind_disjunction_7_disjunct_2  c_disjunction_7_disjunct_2  2
    ind_disjunction_7_disjunct_2  R50       1
    ind_disjunction_8_disjunct_2  c_disjunction_8_disjunct_2  3
    ind_disjunction_8_disjunct_2  R53       1
    ind_disjunction_9_disjunct_2  c_disjunction_9_disjunct_2  3
    ind_disjunction_9_disjunct_2  R56       1
    ind_disjunction_10_disjunct_2  c_disjunction_10_disjunct_2  3
    ind_disjunction_10_disjunct_2  R59       1
    ind_disjunction_11_disjunct_2  c_disjunction_11_disjunct_2  4
    ind_disjunction_11_disjunct_2  R62       1
    ind_disjunction_12_disjunct_2  c_disjunction_12_disjunct_2  2
    ind_disjunction_12_disjunct_2  R65       1
    ind_disjunction_13_disjunct_2  c_disjunction_13_disjunct_2  3
    ind_disjunction_13_disjunct_2  R68       1
    ind_disjunction_14_disjunct_2  c_disjunction_14_disjunct_2  4
    ind_disjunction_14_disjunct_2  R71       1
    ind_disjunction_15_disjunct_2  c_disjunction_15_disjunct_2  2
    ind_disjunction_15_disjunct_2  R74       1
    ind_disjunction_16_disjunct_2  c_disjunction_16_disjunct_2  4
    ind_disjunction_16_disjunct_2  R77       1
    ind_disjunction_17_disjunct_2  c_disjunction_17_disjunct_2  3
    ind_disjunction_17_disjunct_2  R80       1
    ind_disjunction_18_disjunct_2  c_disjunction_18_disjunct_2  4
    ind_disjunction_18_disjunct_2  R83       1
    ind_disjunction_19_disjunct_2  c_disjunction_19_disjunct_2  3
    ind_disjunction_19_disjunct_2  R86       1
    ind_disjunction_20_disjunct_2  c_disjunction_20_disjunct_2  4
    ind_disjunction_20_disjunct_2  R89       1
    ind_disjunction_21_disjunct_2  c_disjunction_21_disjunct_2  2
    ind_disjunction_21_disjunct_2  R92       1
    ind_disjunction_22_disjunct_2  c_disjunction_22_disjunct_2  3
    ind_disjunction_22_disjunct_2  R95       1
    ind_disjunction_23_disjunct_2  c_disjunction_23_disjunct_2  2
    ind_disjunction_23_disjunct_2  R98       1
    ind_disjunction_24_disjunct_2  c_disjunction_24_disjunct_2  3
    ind_disjunction_24_disjunct_2  R101      1
    ind_disjunction_25_disjunct_2  c_disjunction_25_disjunct_2  3
    ind_disjunction_25_disjunct_2  R104      1
    ind_disjunction_26_disjunct_2  c_disjunction_26_disjunct_2  4
    ind_disjunction_26_disjunct_2  R107      1
    ind_disjunction_27_disjunct_2  c_disjunction_27_disjunct_2  3
    ind_disjunction_27_disjunct_2  R110      1
    ind_disjunction_28_disjunct_2  c_disjunction_28_disjunct_2  3
    ind_disjunction_28_disjunct_2  R113      1
    ind_disjunction_29_disjunct_2  c_disjunction_29_disjunct_2  3
    ind_disjunction_29_disjunct_2  R116      1
    ind_disjunction_30_disjunct_2  c_disjunction_30_disjunct_2  3
    ind_disjunction_30_disjunct_2  R119      1
    x[1,1]    demand_1  1
    x[1,1]    c_disjunction_1_diajunct_1  12
    x[1,1]    c_disjunction_1_disjunct_2  1
    x[21,1]   OBJ       14.2
    x[21,1]   demand_1  1
    x[21,1]   c_disjunction_21_diajunct_1  12
    x[21,1]   c_disjunction_21_disjunct_2  1
    x[5,1]    OBJ       14.6
    x[5,1]    demand_1  1
    x[5,1]    c_disjunction_5_diajunct_1  12
    x[5,1]    c_disjunction_5_disjunct_2  1
    x[2,2]    demand_2  1
    x[2,2]    c_disjunction_2_diajunct_1  22
    x[2,2]    c_disjunction_2_disjunct_2  1
    x[18,2]   OBJ       38.7
    x[18,2]   demand_2  1
    x[18,2]   c_disjunction_18_diajunct_1  22
    x[18,2]   c_disjunction_18_disjunct_2  1
    x[28,2]   OBJ       45.8
    x[28,2]   demand_2  1
    x[28,2]   c_disjunction_28_diajunct_1  22
    x[28,2]   c_disjunction_28_disjunct_2  1
    x[3,3]    demand_3  1
    x[3,3]    c_disjunction_3_diajunct_1  24
    x[3,3]    c_disjunction_3_disjunct_2  1
    x[30,3]   OBJ       27.6
    x[30,3]   demand_3  1
    x[30,3]   c_disjunction_30_diajunct_1  24
    x[30,3]   c_disjunction_30_disjunct_2  1
    x[14,3]   OBJ       66.6
    x[14,3]   demand_3  1
    x[14,3]   c_disjunction_14_diajunct_1  24
    x[14,3]   c_disjunction_14_disjunct_2  1
    x[4,4]    demand_4  1
    x[4,4]    c_disjunction_4_diajunct_1  24
    x[4,4]    c_disjunction_4_disjunct_2  1
    x[29,4]   OBJ       10
    x[29,4]   demand_4  1
    x[29,4]   c_disjunction_29_diajunct_1  24
    x[29,4]   c_disjunction_29_disjunct_2  1
    x[16,4]   OBJ       18.6
    x[16,4]   demand_4  1
    x[16,4]   c_disjunction_16_diajunct_1  24
    x[16,4]   c_disjunction_16_disjunct_2  1
    x[5,5]    demand_5  1
    x[5,5]    c_disjunction_5_diajunct_1  16
    x[5,5]    c_disjunction_5_disjunct_2  1
    x[7,5]    OBJ       11.7
    x[7,5]    demand_5  1
    x[7,5]    c_disjunction_7_diajunct_1  16
    x[7,5]    c_disjunction_7_disjunct_2  1
    x[1,5]    OBJ       19.5
    x[1,5]    demand_5  1
    x[1,5]    c_disjunction_1_diajunct_1  16
    x[1,5]    c_disjunction_1_disjunct_2  1
    x[6,6]    demand_6  1
    x[6,6]    c_disjunction_6_diajunct_1  35
    x[6,6]    c_disjunction_6_disjunct_2  1
    x[14,6]   OBJ       48.5
    x[14,6]   demand_6  1
    x[14,6]   c_disjunction_14_diajunct_1  35
    x[14,6]   c_disjunction_14_disjunct_2  1
    x[30,6]   OBJ       87.5
    x[30,6]   demand_6  1
    x[30,6]   c_disjunction_30_diajunct_1  35
    x[30,6]   c_disjunction_30_disjunct_2  1
    x[7,7]    demand_7  1
    x[7,7]    c_disjunction_7_diajunct_1  34
    x[7,7]    c_disjunction_7_disjunct_2  1
    x[5,7]    OBJ       24.8
    x[5,7]    demand_7  1
    x[5,7]    c_disjunction_5_diajunct_1  34
    x[5,7]    c_disjunction_5_disjunct_2  1
    x[16,7]   OBJ       41.1
    x[16,7]   demand_7  1
    x[16,7]   c_disjunction_16_diajunct_1  34
    x[16,7]   c_disjunction_16_disjunct_2  1
    x[8,8]    demand_8  1
    x[8,8]    c_disjunction_8_diajunct_1  8
    x[8,8]    c_disjunction_8_disjunct_2  1
    x[25,8]   OBJ       3.3
    x[25,8]   demand_8  1
    x[25,8]   c_disjunction_25_diajunct_1  8
    x[25,8]   c_disjunction_25_disjunct_2  1
    x[24,8]   OBJ       16.7
    x[24,8]   demand_8  1
    x[24,8]   c_disjunction_24_diajunct_1  8
    x[24,8]   c_disjunction_24_disjunct_2  1
    x[9,9]    demand_9  1
    x[9,9]    c_disjunction_9_diajunct_1  21
    x[9,9]    c_disjunction_9_disjunct_2  1
    x[22,9]   OBJ       8.7
    x[22,9]   demand_9  1
    x[22,9]   c_disjunction_22_diajunct_1  21
    x[22,9]   c_disjunction_22_disjunct_2  1
    x[10,9]   OBJ       11.3
    x[10,9]   demand_9  1
    x[10,9]   c_disjunction_10_diajunct_1  21
    x[10,9]   c_disjunction_10_disjunct_2  1
    x[10,10]  demand_10  1
    x[10,10]  c_disjunction_10_diajunct_1  23
    x[10,10]  c_disjunction_10_disjunct_2  1
    x[9,10]   OBJ       12.4
    x[9,10]   demand_10  1
    x[9,10]   c_disjunction_9_diajunct_1  23
    x[9,10]   c_disjunction_9_disjunct_2  1
    x[22,10]  OBJ       13.6
    x[22,10]  demand_10  1
    x[22,10]  c_disjunction_22_diajunct_1  23
    x[22,10]  c_disjunction_22_disjunct_2  1
    x[11,11]  demand_11  1
    x[11,11]  c_disjunction_11_diajunct_1  18
    x[11,11]  c_disjunction_11_disjunct_2  1
    x[13,11]  OBJ       21.5
    x[13,11]  demand_11  1
    x[13,11]  c_disjunction_13_diajunct_1  18
    x[13,11]  c_disjunction_13_disjunct_2  1
    x[18,11]  OBJ       22.5
    x[18,11]  demand_11  1
    x[18,11]  c_disjunction_18_diajunct_1  18
    x[18,11]  c_disjunction_18_disjunct_2  1
    x[12,12]  demand_12  1
    x[12,12]  c_disjunction_12_diajunct_1  31
    x[12,12]  c_disjunction_12_disjunct_2  1
    x[28,12]  OBJ       42.8
    x[28,12]  demand_12  1
    x[28,12]  c_disjunction_28_diajunct_1  31
    x[28,12]  c_disjunction_28_disjunct_2  1
    x[18,12]  OBJ       85.8
    x[18,12]  demand_12  1
    x[18,12]  c_disjunction_18_diajunct_1  31
    x[18,12]  c_disjunction_18_disjunct_2  1
    x[13,13]  demand_13  1
    x[13,13]  c_disjunction_13_diajunct_1  32
    x[13,13]  c_disjunction_13_disjunct_2  1
    x[24,13]  OBJ       20.5
    x[24,13]  demand_13  1
    x[24,13]  c_disjunction_24_diajunct_1  32
    x[24,13]  c_disjunction_24_disjunct_2  1
    x[11,13]  OBJ       38.2
    x[11,13]  demand_13  1
    x[11,13]  c_disjunction_11_diajunct_1  32
    x[11,13]  c_disjunction_11_disjunct_2  1
    x[14,14]  demand_14  1
    x[14,14]  c_disjunction_14_diajunct_1  8
    x[14,14]  c_disjunction_14_disjunct_2  1
    x[6,14]   OBJ       11.1
    x[6,14]   demand_14  1
    x[6,14]   c_disjunction_6_diajunct_1  8
    x[6,14]   c_disjunction_6_disjunct_2  1
    x[26,14]  OBJ       13.3
    x[26,14]  demand_14  1
    x[26,14]  c_disjunction_26_diajunct_1  8
    x[26,14]  c_disjunction_26_disjunct_2  1
    x[15,15]  demand_15  1
    x[15,15]  c_disjunction_15_diajunct_1  16
    x[15,15]  c_disjunction_15_disjunct_2  1
    x[25,15]  OBJ       33.4
    x[25,15]  demand_15  1
    x[25,15]  c_disjunction_25_diajunct_1  16
    x[25,15]  c_disjunction_25_disjunct_2  1
    x[8,15]   OBJ       34.2
    x[8,15]   demand_15  1
    x[8,15]   c_disjunction_8_diajunct_1  16
    x[8,15]   c_disjunction_8_disjunct_2  1
    x[16,16]  demand_16  1
    x[16,16]  c_disjunction_16_diajunct_1  6
    x[16,16]  c_disjunction_16_disjunct_2  1
    x[4,16]   OBJ       4.6
    x[4,16]   demand_16  1
    x[4,16]   c_disjunction_4_diajunct_1  6
    x[4,16]   c_disjunction_4_disjunct_2  1
    x[29,16]  OBJ       5.7
    x[29,16]  demand_16  1
    x[29,16]  c_disjunction_29_diajunct_1  6
    x[29,16]  c_disjunction_29_disjunct_2  1
    x[17,17]  demand_17  1
    x[17,17]  c_disjunction_17_diajunct_1  14
    x[17,17]  c_disjunction_17_disjunct_2  1
    x[19,17]  OBJ       6.9
    x[19,17]  demand_17  1
    x[19,17]  c_disjunction_19_diajunct_1  14
    x[19,17]  c_disjunction_19_disjunct_2  1
    x[20,17]  OBJ       24.8
    x[20,17]  demand_17  1
    x[20,17]  c_disjunction_20_diajunct_1  14
    x[20,17]  c_disjunction_20_disjunct_2  1
    x[18,18]  demand_18  1
    x[18,18]  c_disjunction_18_diajunct_1  17
    x[18,18]  c_disjunction_18_disjunct_2  1
    x[11,18]  OBJ       21.2
    x[11,18]  demand_18  1
    x[11,18]  c_disjunction_11_diajunct_1  17
    x[11,18]  c_disjunction_11_disjunct_2  1
    x[2,18]   OBJ       29.9
    x[2,18]   demand_18  1
    x[2,18]   c_disjunction_2_diajunct_1  17
    x[2,18]   c_disjunction_2_disjunct_2  1
    x[19,19]  demand_19  1
    x[19,19]  c_disjunction_19_diajunct_1  26
    x[19,19]  c_disjunction_19_disjunct_2  1
    x[17,19]  OBJ       12.9
    x[17,19]  demand_19  1
    x[17,19]  c_disjunction_17_diajunct_1  26
    x[17,19]  c_disjunction_17_disjunct_2  1
    x[20,19]  OBJ       44.6
    x[20,19]  demand_19  1
    x[20,19]  c_disjunction_20_diajunct_1  26
    x[20,19]  c_disjunction_20_disjunct_2  1
    x[20,20]  demand_20  1
    x[20,20]  c_disjunction_20_diajunct_1  6
    x[20,20]  c_disjunction_20_disjunct_2  1
    x[19,20]  OBJ       10.3
    x[19,20]  demand_20  1
    x[19,20]  c_disjunction_19_diajunct_1  6
    x[19,20]  c_disjunction_19_disjunct_2  1
    x[17,20]  OBJ       10.6
    x[17,20]  demand_20  1
    x[17,20]  c_disjunction_17_diajunct_1  6
    x[17,20]  c_disjunction_17_disjunct_2  1
    x[21,21]  demand_21  1
    x[21,21]  c_disjunction_21_diajunct_1  25
    x[21,21]  c_disjunction_21_disjunct_2  1
    x[1,21]   OBJ       29.5
    x[1,21]   demand_21  1
    x[1,21]   c_disjunction_1_diajunct_1  25
    x[1,21]   c_disjunction_1_disjunct_2  1
    x[5,21]   OBJ       48.1
    x[5,21]   demand_21  1
    x[5,21]   c_disjunction_5_diajunct_1  25
    x[5,21]   c_disjunction_5_disjunct_2  1
    x[22,22]  demand_22  1
    x[22,22]  c_disjunction_22_diajunct_1  26
    x[22,22]  c_disjunction_22_disjunct_2  1
    x[9,22]   OBJ       10.8
    x[9,22]   demand_22  1
    x[9,22]   c_disjunction_9_diajunct_1  26
    x[9,22]   c_disjunction_9_disjunct_2  1
    x[10,22]  OBJ       15.3
    x[10,22]  demand_22  1
    x[10,22]  c_disjunction_10_diajunct_1  26
    x[10,22]  c_disjunction_10_disjunct_2  1
    x[23,23]  demand_23  1
    x[23,23]  c_disjunction_23_diajunct_1  20
    x[23,23]  c_disjunction_23_disjunct_2  1
    x[27,23]  OBJ       38.2
    x[27,23]  demand_23  1
    x[27,23]  c_disjunction_27_diajunct_1  20
    x[27,23]  c_disjunction_27_disjunct_2  1
    x[20,23]  OBJ       44.8
    x[20,23]  demand_23  1
    x[20,23]  c_disjunction_20_diajunct_1  20
    x[20,23]  c_disjunction_20_disjunct_2  1
    x[24,24]  demand_24  1
    x[24,24]  c_disjunction_24_diajunct_1  8
    x[24,24]  c_disjunction_24_disjunct_2  1
    x[13,24]  OBJ       5.1
    x[13,24]  demand_24  1
    x[13,24]  c_disjunction_13_diajunct_1  8
    x[13,24]  c_disjunction_13_disjunct_2  1
    x[11,24]  OBJ       12.3
    x[11,24]  demand_24  1
    x[11,24]  c_disjunction_11_diajunct_1  8
    x[11,24]  c_disjunction_11_disjunct_2  1
    x[25,25]  demand_25  1
    x[25,25]  c_disjunction_25_diajunct_1  11
    x[25,25]  c_disjunction_25_disjunct_2  1
    x[8,25]   OBJ       4.6
    x[8,25]   demand_25  1
    x[8,25]   c_disjunction_8_diajunct_1  11
    x[8,25]   c_disjunction_8_disjunct_2  1
    x[15,25]  OBJ       22.9
    x[15,25]  demand_25  1
    x[15,25]  c_disjunction_15_diajunct_1  11
    x[15,25]  c_disjunction_15_disjunct_2  1
    x[26,26]  demand_26  1
    x[26,26]  c_disjunction_26_diajunct_1  12
    x[26,26]  c_disjunction_26_disjunct_2  1
    x[27,26]  OBJ       12.7
    x[27,26]  demand_26  1
    x[27,26]  c_disjunction_27_diajunct_1  12
    x[27,26]  c_disjunction_27_disjunct_2  1
    x[14,26]  OBJ       20
    x[14,26]  demand_26  1
    x[14,26]  c_disjunction_14_diajunct_1  12
    x[14,26]  c_disjunction_14_disjunct_2  1
    x[27,27]  demand_27  1
    x[27,27]  c_disjunction_27_diajunct_1  35
    x[27,27]  c_disjunction_27_disjunct_2  1
    x[26,27]  OBJ       37.1
    x[26,27]  demand_27  1
    x[26,27]  c_disjunction_26_diajunct_1  35
    x[26,27]  c_disjunction_26_disjunct_2  1
    x[23,27]  OBJ       66.9
    x[23,27]  demand_27  1
    x[23,27]  c_disjunction_23_diajunct_1  35
    x[23,27]  c_disjunction_23_disjunct_2  1
    x[28,28]  demand_28  1
    x[28,28]  c_disjunction_28_diajunct_1  11
    x[28,28]  c_disjunction_28_disjunct_2  1
    x[12,28]  OBJ       15.2
    x[12,28]  demand_28  1
    x[12,28]  c_disjunction_12_diajunct_1  11
    x[12,28]  c_disjunction_12_disjunct_2  1
    x[2,28]   OBJ       22.9
    x[2,28]   demand_28  1
    x[2,28]   c_disjunction_2_diajunct_1  11
    x[2,28]   c_disjunction_2_disjunct_2  1
    x[29,29]  demand_29  1
    x[29,29]  c_disjunction_29_diajunct_1  23
    x[29,29]  c_disjunction_29_disjunct_2  1
    x[4,29]   OBJ       9.6
    x[4,29]   demand_29  1
    x[4,29]   c_disjunction_4_diajunct_1  23
    x[4,29]   c_disjunction_4_disjunct_2  1
    x[16,29]  OBJ       21.8
    x[16,29]  demand_29  1
    x[16,29]  c_disjunction_16_diajunct_1  23
    x[16,29]  c_disjunction_16_disjunct_2  1
    x[30,30]  demand_30  1
    x[30,30]  c_disjunction_30_diajunct_1  25
    x[30,30]  c_disjunction_30_disjunct_2  1
    x[3,30]   OBJ       28.8
    x[3,30]   demand_30  1
    x[3,30]   c_disjunction_3_diajunct_1  25
    x[3,30]   c_disjunction_3_disjunct_2  1
    x[26,30]  OBJ       43.4
    x[26,30]  demand_30  1
    x[26,30]  c_disjunction_26_diajunct_1  25
    x[26,30]  c_disjunction_26_disjunct_2  1
    MARKER    'MARKER'                 'INTEND'
RHS
    RHS1      demand_1  1
    RHS1      demand_2  1
    RHS1      demand_3  1
    RHS1      demand_4  1
    RHS1      demand_5  1
    RHS1      demand_6  1
    RHS1      demand_7  1
    RHS1      demand_8  1
    RHS1      demand_9  1
    RHS1      demand_10  1
    RHS1      demand_11  1
    RHS1      demand_12  1
    RHS1      demand_13  1
    RHS1      demand_14  1
    RHS1      demand_15  1
    RHS1      demand_16  1
    RHS1      demand_17  1
    RHS1      demand_18  1
    RHS1      demand_19  1
    RHS1      demand_20  1
    RHS1      demand_21  1
    RHS1      demand_22  1
    RHS1      demand_23  1
    RHS1      demand_24  1
    RHS1      demand_25  1
    RHS1      demand_26  1
    RHS1      demand_27  1
    RHS1      demand_28  1
    RHS1      demand_29  1
    RHS1      demand_30  1
    RHS1      c_disjunction_1_disjunct_2  3
    RHS1      R32       1
    RHS1      c_disjunction_2_disjunct_2  3
    RHS1      R35       1
    RHS1      c_disjunction_3_disjunct_2  2
    RHS1      R38       1
    RHS1      c_disjunction_4_disjunct_2  3
    RHS1      R41       1
    RHS1      c_disjunction_5_disjunct_2  4
    RHS1      R44       1
    RHS1      c_disjunction_6_disjunct_2  2
    RHS1      R47       1
    RHS1      c_disjunction_7_disjunct_2  2
    RHS1      R50       1
    RHS1      c_disjunction_8_disjunct_2  3
    RHS1      R53       1
    RHS1      c_disjunction_9_disjunct_2  3
    RHS1      R56       1
    RHS1      c_disjunction_10_disjunct_2  3
    RHS1      R59       1
    RHS1      c_disjunction_11_disjunct_2  4
    RHS1      R62       1
    RHS1      c_disjunction_12_disjunct_2  2
    RHS1      R65       1
    RHS1      c_disjunction_13_disjunct_2  3
    RHS1      R68       1
    RHS1      c_disjunction_14_disjunct_2  4
    RHS1      R71       1
    RHS1      c_disjunction_15_disjunct_2  2
    RHS1      R74       1
    RHS1      c_disjunction_16_disjunct_2  4
    RHS1      R77       1
    RHS1      c_disjunction_17_disjunct_2  3
    RHS1      R80       1
    RHS1      c_disjunction_18_disjunct_2  4
    RHS1      R83       1
    RHS1      c_disjunction_19_disjunct_2  3
    RHS1      R86       1
    RHS1      c_disjunction_20_disjunct_2  4
    RHS1      R89       1
    RHS1      c_disjunction_21_disjunct_2  2
    RHS1      R92       1
    RHS1      c_disjunction_22_disjunct_2  3
    RHS1      R95       1
    RHS1      c_disjunction_23_disjunct_2  2
    RHS1      R98       1
    RHS1      c_disjunction_24_disjunct_2  3
    RHS1      R101      1
    RHS1      c_disjunction_25_disjunct_2  3
    RHS1      R104      1
    RHS1      c_disjunction_26_disjunct_2  4
    RHS1      R107      1
    RHS1      c_disjunction_27_disjunct_2  3
    RHS1      R110      1
    RHS1      c_disjunction_28_disjunct_2  3
    RHS1      R113      1
    RHS1      c_disjunction_29_disjunct_2  3
    RHS1      R116      1
    RHS1      c_disjunction_30_disjunct_2  3
    RHS1      R119      1
BOUNDS
 BV BND1      ind_disjunction_1_disjunct_1
 BV BND1      ind_disjunction_2_disjunct_1
 BV BND1      ind_disjunction_3_disjunct_1
 BV BND1      ind_disjunction_4_disjunct_1
 BV BND1      ind_disjunction_5_disjunct_1
 BV BND1      ind_disjunction_6_disjunct_1
 BV BND1      ind_disjunction_7_disjunct_1
 BV BND1      ind_disjunction_8_disjunct_1
 BV BND1      ind_disjunction_9_disjunct_1
 BV BND1      ind_disjunction_10_disjunct_1
 BV BND1      ind_disjunction_11_disjunct_1
 BV BND1      ind_disjunction_12_disjunct_1
 BV BND1      ind_disjunction_13_disjunct_1
 BV BND1      ind_disjunction_14_disjunct_1
 BV BND1      ind_disjunction_15_disjunct_1
 BV BND1      ind_disjunction_16_disjunct_1
 BV BND1      ind_disjunction_17_disjunct_1
 BV BND1      ind_disjunction_18_disjunct_1
 BV BND1      ind_disjunction_19_disjunct_1
 BV BND1      ind_disjunction_20_disjunct_1
 BV BND1      ind_disjunction_21_disjunct_1
 BV BND1      ind_disjunction_22_disjunct_1
 BV BND1      ind_disjunction_23_disjunct_1
 BV BND1      ind_disjunction_24_disjunct_1
 BV BND1      ind_disjunction_25_disjunct_1
 BV BND1      ind_disjunction_26_disjunct_1
 BV BND1      ind_disjunction_27_disjunct_1
 BV BND1      ind_disjunction_28_disjunct_1
 BV BND1      ind_disjunction_29_disjunct_1
 BV BND1      ind_disjunction_30_disjunct_1
 BV BND1      ind_disjunction_1_disjunct_2
 BV BND1      ind_disjunction_2_disjunct_2
 BV BND1      ind_disjunction_3_disjunct_2
 BV BND1      ind_disjunction_4_disjunct_2
 BV BND1      ind_disjunction_5_disjunct_2
 BV BND1      ind_disjunction_6_disjunct_2
 BV BND1      ind_disjunction_7_disjunct_2
 BV BND1      ind_disjunction_8_disjunct_2
 BV BND1      ind_disjunction_9_disjunct_2
 BV BND1      ind_disjunction_10_disjunct_2
 BV BND1      ind_disjunction_11_disjunct_2
 BV BND1      ind_disjunction_12_disjunct_2
 BV BND1      ind_disjunction_13_disjunct_2
 BV BND1      ind_disjunction_14_disjunct_2
 BV BND1      ind_disjunction_15_disjunct_2
 BV BND1      ind_disjunction_16_disjunct_2
 BV BND1      ind_disjunction_17_disjunct_2
 BV BND1      ind_disjunction_18_disjunct_2
 BV BND1      ind_disjunction_19_disjunct_2
 BV BND1      ind_disjunction_20_disjunct_2
 BV BND1      ind_disjunction_21_disjunct_2
 BV BND1      ind_disjunction_22_disjunct_2
 BV BND1      ind_disjunction_23_disjunct_2
 BV BND1      ind_disjunction_24_disjunct_2
 BV BND1      ind_disjunction_25_disjunct_2
 BV BND1      ind_disjunction_26_disjunct_2
 BV BND1      ind_disjunction_27_disjunct_2
 BV BND1      ind_disjunction_28_disjunct_2
 BV BND1      ind_disjunction_29_disjunct_2
 BV BND1      ind_disjunction_30_disjunct_2
 BV BND1      x[1,1]  
 BV BND1      x[21,1] 
 BV BND1      x[5,1]  
 BV BND1      x[2,2]  
 BV BND1      x[18,2] 
 BV BND1      x[28,2] 
 BV BND1      x[3,3]  
 BV BND1      x[30,3] 
 BV BND1      x[14,3] 
 BV BND1      x[4,4]  
 BV BND1      x[29,4] 
 BV BND1      x[16,4] 
 BV BND1      x[5,5]  
 BV BND1      x[7,5]  
 BV BND1      x[1,5]  
 BV BND1      x[6,6]  
 BV BND1      x[14,6] 
 BV BND1      x[30,6] 
 BV BND1      x[7,7]  
 BV BND1      x[5,7]  
 BV BND1      x[16,7] 
 BV BND1      x[8,8]  
 BV BND1      x[25,8] 
 BV BND1      x[24,8] 
 BV BND1      x[9,9]  
 BV BND1      x[22,9] 
 BV BND1      x[10,9] 
 BV BND1      x[10,10]
 BV BND1      x[9,10] 
 BV BND1      x[22,10]
 BV BND1      x[11,11]
 BV BND1      x[13,11]
 BV BND1      x[18,11]
 BV BND1      x[12,12]
 BV BND1      x[28,12]
 BV BND1      x[18,12]
 BV BND1      x[13,13]
 BV BND1      x[24,13]
 BV BND1      x[11,13]
 BV BND1      x[14,14]
 BV BND1      x[6,14] 
 BV BND1      x[26,14]
 BV BND1      x[15,15]
 BV BND1      x[25,15]
 BV BND1      x[8,15] 
 BV BND1      x[16,16]
 BV BND1      x[4,16] 
 BV BND1      x[29,16]
 BV BND1      x[17,17]
 BV BND1      x[19,17]
 BV BND1      x[20,17]
 BV BND1      x[18,18]
 BV BND1      x[11,18]
 BV BND1      x[2,18] 
 BV BND1      x[19,19]
 BV BND1      x[17,19]
 BV BND1      x[20,19]
 BV BND1      x[20,20]
 BV BND1      x[19,20]
 BV BND1      x[17,20]
 BV BND1      x[21,21]
 BV BND1      x[1,21] 
 BV BND1      x[5,21] 
 BV BND1      x[22,22]
 BV BND1      x[9,22] 
 BV BND1      x[10,22]
 BV BND1      x[23,23]
 BV BND1      x[27,23]
 BV BND1      x[20,23]
 BV BND1      x[24,24]
 BV BND1      x[13,24]
 BV BND1      x[11,24]
 BV BND1      x[25,25]
 BV BND1      x[8,25] 
 BV BND1      x[15,25]
 BV BND1      x[26,26]
 BV BND1      x[27,26]
 BV BND1      x[14,26]
 BV BND1      x[27,27]
 BV BND1      x[26,27]
 BV BND1      x[23,27]
 BV BND1      x[28,28]
 BV BND1      x[12,28]
 BV BND1      x[2,28] 
 BV BND1      x[29,29]
 BV BND1      x[4,29] 
 BV BND1      x[16,29]
 BV BND1      x[30,30]
 BV BND1      x[3,30] 
 BV BND1      x[26,30]
ENDATA
